language Essence 1.3

letting blksize_delta be
        function(1 --> 2, 2 --> 2, 3 --> 5, 4 --> 3, 5 --> 5, 6 --> 2, 7 --> 5, 8 --> 2, 9 --> 2, 10 --> 4, 11 --> 3,
                 12 --> 3, 13 --> 2, 14 --> 4, 15 --> 5, 16 --> 5, 17 --> 2)
letting maxcars be
        function(1 --> 5, 2 --> 6, 3 --> 5, 4 --> 4, 5 --> 6, 6 --> 6, 7 --> 4, 8 --> 3, 9 --> 5, 10 --> 6, 11 --> 6,
                 12 --> 3, 13 --> 3, 14 --> 5, 15 --> 5, 16 --> 3, 17 --> 4)
letting n_cars be 80
letting n_classes be 17
letting n_options be 17
letting quantity be
        function(1 --> 6, 2 --> 8, 3 --> 7, 4 --> 5, 5 --> 5, 6 --> 4, 7 --> 4, 8 --> 4, 9 --> 5, 10 --> 4, 11 --> 4,
                 12 --> 4, 13 --> 4, 14 --> 4, 15 --> 4, 16 --> 4, 17 --> 4)
letting usage be
        relation((1, 1), (1, 2), (1, 3), (1, 4), (1, 6), (1, 10), (1, 11), (1, 14), (1, 15), (2, 1), (2, 2), (2, 3),
                 (2, 10), (2, 11), (2, 14), (3, 7), (3, 8), (3, 10), (3, 13), (3, 14), (3, 16), (4, 2), (4, 4), (4, 5),
                 (4, 6), (4, 7), (4, 8), (4, 9), (4, 10), (4, 11), (4, 12), (4, 15), (5, 2), (5, 3), (5, 5), (5, 6),
                 (5, 8), (5, 10), (5, 13), (5, 15), (6, 1), (6, 2), (6, 4), (6, 5), (6, 8), (6, 10), (6, 12), (6, 13),
                 (6, 14), (6, 16), (7, 4), (7, 8), (7, 10), (7, 11), (8, 1), (8, 2), (8, 3), (8, 5), (8, 6), (8, 7),
                 (8, 8), (8, 9), (8, 15), (9, 1), (9, 7), (9, 8), (9, 14), (9, 16), (10, 1), (10, 3), (10, 8), (10, 9),
                 (10, 11), (10, 15), (10, 16), (11, 3), (11, 5), (11, 8), (11, 9), (11, 10), (11, 13), (11, 15),
                 (11, 16), (12, 1), (12, 3), (12, 5), (12, 6), (12, 7), (12, 8), (12, 10), (12, 11), (12, 14), (12, 15),
                 (13, 1), (13, 3), (13, 7), (13, 13), (13, 16), (14, 1), (14, 3), (14, 6), (14, 7), (14, 9), (14, 10),
                 (14, 11), (14, 13), (15, 1), (15, 4), (15, 5), (15, 8), (15, 9), (15, 11), (15, 12), (15, 15), (16, 1),
                 (17, 17))
$ Visualisation for usage
$  1  1
$  1  2
$  1  3
$  1  4
$  1  6
$  1 10
$  1 11
$  1 14
$  1 15
$  2  1
$  2  2
$  2  3
$  2 10
$  2 11
$  2 14
$  3  7
$  3  8
$  3 10
$  3 13
$  3 14
$  3 16
$  4  2
$  4  4
$  4  5
$  4  6
$  4  7
$  4  8
$  4  9
$  4 10
$  4 11
$  4 12
$  4 15
$  5  2
$  5  3
$  5  5
$  5  6
$  5  8
$  5 10
$  5 13
$  5 15
$  6  1
$  6  2
$  6  4
$  6  5
$  6  8
$  6 10
$  6 12
$  6 13
$  6 14
$  6 16
$  7  4
$  7  8
$  7 10
$  7 11
$  8  1
$  8  2
$  8  3
$  8  5
$  8  6
$  8  7
$  8  8
$  8  9
$  8 15
$  9  1
$  9  7
$  9  8
$  9 14
$  9 16
$ 10  1
$ 10  3
$ 10  8
$ 10  9
$ 10 11
$ 10 15
$ 10 16
$ 11  3
$ 11  5
$ 11  8
$ 11  9
$ 11 10
$ 11 13
$ 11 15
$ 11 16
$ 12  1
$ 12  3
$ 12  5
$ 12  6
$ 12  7
$ 12  8
$ 12 10
$ 12 11
$ 12 14
$ 12 15
$ 13  1
$ 13  3
$ 13  7
$ 13 13
$ 13 16
$ 14  1
$ 14  3
$ 14  6
$ 14  7
$ 14  9
$ 14 10
$ 14 11
$ 14 13
$ 15  1
$ 15  4
$ 15  5
$ 15  8
$ 15  9
$ 15 11
$ 15 12
$ 15 15
$ 16  1
$ 17 17

